SDVRP instances/custom_instances/p02_25_splitx10_0.vrp
NAME:p02_25_splitx10_
BEST_KNOWN: 0
COMMENT: 0
DIMENSION: 340
CAPACITY: 1400
EDGE_WEIGHT_FORMAT: FUNCTION
EDGE_WEIGHT_TYPE: EXACT_2D
NODE_COORD_SECTION
1 0.00000 0.00000
2 -24 -24
3 -24 -24
4 -24 -24
5 -24 -24
6 10 -15
7 10 -15
8 -15 -39
9 -15 -39
10 -15 -39
11 13 16
12 13 16
13 11 -39
14 11 -39
15 11 -39
16 11 -39
17 11 -39
18 -41 -41
19 -41 -41
20 -41 -41
21 -41 -41
22 -2 24
23 -2 24
24 -2 24
25 -2 24
26 -2 24
27 -44 -9
28 -44 -9
29 -44 -9
30 -44 -9
31 -44 -9
32 -44 -9
33 -44 -9
34 41 19
35 41 19
36 5 -13
37 5 -13
38 5 -13
39 -37 -16
40 -37 -16
41 -37 -16
42 -18 6
43 -18 6
44 -18 6
45 -18 6
46 -18 6
47 -6 -22
48 -6 -22
49 -11 4
50 -11 4
51 5 -28
52 5 -28
53 25 44
54 -48 -40
55 -48 -40
56 -48 -40
57 -48 -40
58 -48 -40
59 27 -22
60 27 -22
61 27 -22
62 27 -22
63 27 -22
64 -41 -40
65 -41 -40
66 -41 -40
67 -41 -40
68 -41 -40
69 44 -6
70 44 -6
71 44 -6
72 -40 -11
73 -40 -11
74 -40 -11
75 -40 -11
76 -40 -11
77 -40 -11
78 35 -29
79 35 -29
80 35 -29
81 35 -29
82 35 -29
83 35 -29
84 35 -29
85 24 -4
86 24 -4
87 24 -4
88 24 -4
89 24 -4
90 24 -4
91 35 -36
92 35 -36
93 35 -36
94 35 -36
95 35 -36
96 -49 -21
97 -49 -21
98 -49 -21
99 -49 -21
100 -42 24
101 -42 24
102 -42 24
103 -42 24
104 -42 24
105 -35 -49
106 -35 -49
107 -35 -49
108 -35 -49
109 -35 -49
110 43 5
111 43 5
112 43 5
113 43 5
114 43 5
115 43 5
116 -6 -8
117 -6 -8
118 -6 -8
119 -6 -8
120 -6 -8
121 -33 -41
122 -33 -41
123 -33 -41
124 -33 -41
125 -35 16
126 -35 16
127 -35 16
128 -35 16
129 -35 16
130 32 -45
131 32 -45
132 32 -45
133 20 -16
134 20 -16
135 -12 50
136 -12 50
137 -12 50
138 -12 50
139 -12 50
140 -12 50
141 -12 50
142 -49 41
143 -49 41
144 -49 41
145 -49 41
146 -49 41
147 36 43
148 36 43
149 36 43
150 36 43
151 -7 22
152 -7 22
153 -7 22
154 -7 22
155 -7 22
156 -7 22
157 -10 -41
158 -10 -41
159 -10 -41
160 -10 -41
161 -10 -41
162 33 -11
163 33 -11
164 33 -11
165 33 -11
166 33 -11
167 33 -11
168 33 -11
169 33 -11
170 43 -37
171 43 -37
172 43 -37
173 43 -37
174 43 -37
175 43 -37
176 43 -37
177 -9 -3
178 -9 -3
179 -9 -3
180 -9 -3
181 4 17
182 4 17
183 4 17
184 -42 18
185 -42 18
186 -42 18
187 -42 18
188 -42 18
189 -42 18
190 -12 9
191 -12 9
192 -12 9
193 -12 9
194 -12 9
195 -12 9
196 19 13
197 19 13
198 19 13
199 19 13
200 19 13
201 19 13
202 19 -30
203 19 -30
204 19 -30
205 19 -30
206 19 -30
207 19 -30
208 28 -50
209 28 -50
210 28 -50
211 28 -50
212 28 -50
213 6 -49
214 6 -49
215 6 -49
216 6 -49
217 6 -49
218 34 27
219 34 27
220 34 27
221 34 27
222 -30 30
223 -30 30
224 -30 30
225 -30 30
226 -30 30
227 23 -35
228 23 -35
229 23 -35
230 23 -35
231 23 -35
232 23 -35
233 17 37
234 17 37
235 17 37
236 17 37
237 -21 28
238 -21 28
239 -21 28
240 -21 28
241 -21 28
242 -21 28
243 8 -30
244 8 -30
245 8 -30
246 8 -30
247 8 -30
248 -31 -23
249 35 29
250 35 29
251 35 29
252 35 29
253 24 -2
254 24 -2
255 24 -2
256 24 -2
257 -21 -23
258 -21 -23
259 -21 -23
260 -21 -23
261 -21 -23
262 -21 -23
263 49 42
264 49 42
265 49 42
266 49 42
267 33 -41
268 33 -41
269 33 -41
270 33 -41
271 -48 36
272 -48 36
273 -48 36
274 -48 36
275 -48 36
276 46 -1
277 46 -1
278 46 -1
279 46 -1
280 46 -1
281 35 17
282 35 17
283 35 17
284 35 17
285 35 17
286 35 17
287 7 -16
288 7 -16
289 7 -16
290 7 -16
291 7 -16
292 38 -50
293 38 -50
294 38 -50
295 38 -50
296 21 -24
297 21 -24
298 21 -24
299 21 -24
300 2 -49
301 2 -49
302 2 -49
303 2 -49
304 2 -49
305 2 -49
306 2 -49
307 3 -22
308 3 -22
309 3 -22
310 3 -22
311 -2 -16
312 -2 -16
313 -2 -16
314 -2 -16
315 -2 -16
316 -2 -16
317 -34 43
318 -34 43
319 -34 43
320 -33 25
321 -33 25
322 -33 25
323 -33 25
324 -33 25
325 28 -40
326 28 -40
327 28 -40
328 28 -40
329 28 -40
330 44 -6
331 44 -6
332 44 -6
333 44 -6
334 -13 -44
335 -13 -44
336 -13 -44
337 -13 -44
338 42 18
339 42 18
340 42 18
DEMAND_SECTION
1 0
2 280
3 70
4 14
5 6
6 280
7 140
8 280
9 140
10 10
11 140
12 70
13 280
14 140
15 14
16 14
17 12
18 140
19 70
20 14
21 6
22 280
23 140
24 70
25 14
26 6
27 280
28 140
29 70
30 14
31 14
32 14
33 8
34 280
35 280
36 280
37 140
38 10
39 280
40 140
41 70
42 140
43 70
44 14
45 14
46 2
47 280
48 140
49 280
50 70
51 140
52 70
53 280
54 140
55 70
56 14
57 14
58 12
59 140
60 70
61 14
62 14
63 12
64 280
65 280
66 14
67 14
68 2
69 280
70 280
71 70
72 140
73 70
74 14
75 14
76 14
77 8
78 280
79 140
80 14
81 14
82 14
83 14
84 4
85 140
86 70
87 14
88 14
89 14
90 8
91 140
92 70
93 14
94 14
95 2
96 280
97 280
98 14
99 6
100 280
101 70
102 14
103 14
104 2
105 280
106 70
107 14
108 14
109 2
110 140
111 14
112 14
113 14
114 14
115 4
116 280
117 14
118 14
119 14
120 8
121 280
122 14
123 14
124 2
125 280
126 70
127 14
128 14
129 2
130 140
131 70
132 10
133 280
134 10
135 280
136 140
137 70
138 14
139 14
140 14
141 8
142 140
143 70
144 14
145 14
146 12
147 140
148 14
149 14
150 12
151 280
152 140
153 14
154 14
155 14
156 8
157 280
158 280
159 14
160 14
161 12
162 280
163 280
164 70
165 14
166 14
167 14
168 14
169 4
170 280
171 280
172 70
173 14
174 14
175 14
176 8
177 280
178 280
179 14
180 6
181 280
182 280
183 70
184 140
185 14
186 14
187 14
188 14
189 4
190 140
191 70
192 14
193 14
194 14
195 8
196 140
197 14
198 14
199 14
200 14
201 4
202 280
203 280
204 70
205 14
206 14
207 2
208 280
209 70
210 14
211 14
212 2
213 140
214 70
215 14
216 14
217 2
218 280
219 280
220 14
221 6
222 280
223 140
224 14
225 14
226 2
227 280
228 70
229 14
230 14
231 14
232 8
233 280
234 280
235 70
236 10
237 140
238 70
239 14
240 14
241 14
242 8
243 280
244 140
245 14
246 14
247 12
248 280
249 280
250 140
251 70
252 10
253 280
254 14
255 14
256 2
257 280
258 280
259 70
260 14
261 14
262 12
263 280
264 280
265 70
266 10
267 280
268 14
269 14
270 12
271 140
272 70
273 14
274 14
275 2
276 280
277 70
278 14
279 14
280 2
281 140
282 70
283 14
284 14
285 14
286 8
287 140
288 70
289 14
290 14
291 2
292 280
293 14
294 14
295 12
296 140
297 14
298 14
299 12
300 140
301 70
302 14
303 14
304 14
305 14
306 4
307 280
308 140
309 14
310 6
311 140
312 14
313 14
314 14
315 14
316 4
317 280
318 280
319 70
320 140
321 14
322 14
323 14
324 8
325 280
326 280
327 14
328 14
329 12
330 280
331 14
332 14
333 12
334 280
335 14
336 14
337 12
338 280
339 140
340 10
DEPOT_SECTION
1
-1
EOF