SDVRP instances/custom_instances/p02_25_splitx10_0.sol
339 -2 3 67 65 66 63 20 17 18 19 105 108 104 107 106 120 121 122 123 119 117 116 -4 1 256 257 259 260 261 258 46 47 -6 5 286 287 289 36 37 35 -9 8 7 333 335 334 336 157 158 160 156 159 313 312 311 -10 233 232 234 181 182 180 -11 248 250 251 249 220 217 219 218 199 197 200 198 196 195 -21 25 24 23 22 151 155 154 152 150 153 189 190 194 191 193 192 -26 29 31 30 28 27 32 74 73 71 72 75 76 38 39 40 -34 33 337 339 338 114 112 109 111 113 110 84 86 -41 45 42 44 43 125 124 128 126 127 188 187 184 183 185 186 101 103 100 99 102 320 319 321 323 322 -48 49 221 223 222 224 225 139 134 140 138 135 137 136 -59 62 60 58 61 328 325 324 226 227 229 228 230 295 296 298 297 -69 329 70 332 330 331 68 277 278 279 276 275 -79 83 82 78 77 81 80 172 174 171 175 170 173 169 90 91 94 92 93 -95 97 96 98 56 53 57 55 54 64 247 -118 115 176 177 178 179 -133 132 164 166 167 165 161 162 163 168 89 88 85 87 254 255 253 252 -201 202 242 243 307 306 -204 205 203 206 231 327 326 267 269 266 268 129 131 130 291 293 292 294 210 209 207 208 211 290 288 -235 52 146 148 149 147 265 262 263 264 283 282 281 280 285 284 -239 240 238 241 237 236 317 318 316 145 141 142 144 143 271 272 274 273 270 -309 308 51 50 244 246 245 15 13 14 12 16 215 213 216 214 212 304 301 302 305 300 303 299 310 315 314 0 





OBJ=
2145.142
BEST_KNOWN=
0.000